
  32    4
  10   10   10   10

   0   0   0   0   0  11 2 3 4 5 7 8 12 28 29 30 31 
   5   1   0   1   1   7 27 26 25 18 14 13 11 
   1   5   1   5   0   5 24 19 15 14 6 
   8   5   0   4   3   5 23 20 18 16 10 
   6   0   4   4   2   3 21 20 9 
   8   4   4   4   0   2 17 16 
  10   5   0   1   3   2 21 14 
  10   5   4   4   0   2 22 17 
   7   3   5   4   0   1 13 
   4   4   3   3   0   1 13 
   7   3   0   6   3   1 15 
   3   0   7   4   6   1 19 
   3   6   3   0   4   1 32
   2   3   0   5   4   1 32
   3   1   0   6   3   1 32
   8   1   0   5   6   1 32
   1   0   3   5   3   1 32
   5   4   3   0   6   1 32
   6   0   4   4   7   1 32
   2   5   7   3   0   1 32
  10   3   0   5   6   1 32
   3   6   6  10   0   1 32
   1   0   5   4   2   1 32
   3   3   0   4   3   1 32
   1   7   0   1   4   1 32
   9   5   0   3   1   1 32
   7   5   0   2   5   1 32
   7   0   4   5   4   1 32
   9   4   3   0   5   1 32
   2   4   0   2   4   1 32
   9   0   2   4   7   1 32
   0   0   0   0   0   0 
